Traveling Salesman Problem/TSP_generados/Aleatorio1620390911_8.tsp
NAME: Aleatorio1620390911_8.tsp
COMMENT: Randomly generated scenario
TYPE: TSP
DIMENSION: 8
EDGE_WEIGHT_TYPE: ATT
NODE_COORD_SECTION
1 31.9 4.05
2 25.42 4.0
3 32.17 22.03
4 19.06 16.16
5 43.79 7.58
6 15.75 43.58
7 27.03 45.23
8 8.09 7.66
