Traveling Salesman Problem/TSP_generados/Aleatorio1620390911_8.opt.tour
NAME: Aleatorio1620390911_8.opt.tour
COMMENT: Optimal solution for Aleatorio1620390911_8 (131.79735526651157)
TYPE: TOUR
DIMENSION: 8
TOUR_SECTION
1 5 3 7 6 4 8 2
-1
EOF
